(set-option :produce-models true)
(set-logic QF_UF)
(declare-fun p70() Bool)
(declare-fun p69() Bool)
(declare-fun p11() Bool)
(declare-fun p45() Bool)
(declare-fun p60() Bool)
(declare-fun p22() Bool)
(declare-fun p6() Bool)
(declare-fun p20() Bool)
(declare-fun p24() Bool)
(declare-fun p54() Bool)
(declare-fun p74() Bool)
(declare-fun p72() Bool)
(declare-fun p35() Bool)
(declare-fun p43() Bool)
(declare-fun p36() Bool)
(declare-fun p28() Bool)
(declare-fun p14() Bool)
(declare-fun p58() Bool)
(declare-fun p62() Bool)
(declare-fun p19() Bool)
(declare-fun p66() Bool)
(declare-fun p59() Bool)
(declare-fun p27() Bool)
(declare-fun p23() Bool)
(declare-fun p52() Bool)
(declare-fun p0() Bool)
(declare-fun p78() Bool)
(declare-fun p26() Bool)
(declare-fun p30() Bool)
(declare-fun p15() Bool)
(declare-fun p61() Bool)
(declare-fun p18() Bool)
(declare-fun p63() Bool)
(declare-fun p7() Bool)
(declare-fun p33() Bool)
(declare-fun p49() Bool)
(declare-fun p40() Bool)
(declare-fun p32() Bool)
(declare-fun p73() Bool)
(declare-fun p37() Bool)
(declare-fun p65() Bool)
(declare-fun p5() Bool)
(declare-fun p56() Bool)
(declare-fun p1() Bool)
(declare-fun p4() Bool)
(declare-fun p68() Bool)
(declare-fun p46() Bool)
(declare-fun p2() Bool)
(declare-fun p50() Bool)
(declare-fun p53() Bool)
(declare-fun p77() Bool)
(declare-fun p71() Bool)
(declare-fun p25() Bool)
(declare-fun p12() Bool)
(declare-fun p57() Bool)
(declare-fun p38() Bool)
(declare-fun p64() Bool)
(declare-fun p42() Bool)
(declare-fun p29() Bool)
(declare-fun p21() Bool)
(declare-fun p67() Bool)
(declare-fun p31() Bool)
(declare-fun p16() Bool)
(declare-fun p55() Bool)
(declare-fun p79() Bool)
(declare-fun p9() Bool)
(declare-fun p13() Bool)
(declare-fun p41() Bool)
(declare-fun p8() Bool)
(declare-fun p39() Bool)
(declare-fun p51() Bool)
(declare-fun p48() Bool)
(declare-fun p3() Bool)
(declare-fun p47() Bool)
(declare-fun p44() Bool)
(declare-fun p75() Bool)
(declare-fun p17() Bool)
(declare-fun p10() Bool)
(declare-fun p76() Bool)
(declare-fun p34() Bool)
(assert
(and (or p70 p69 (not p11)) (or (not p45) p60 (not p22)) (or (not p6) (not p20) p24) (or p54 p74 (not p72)) (or p35 (not p20) p72) (or p43 p36 (not p45)) (or (not p28) p14 (not p22)) (or p58 (not p69) (not p58)) (or (not p62) p19 (not p66)) (or p59 p27 p23) (or (not p52) p0 p78) (or p62 (not p20) (not p26)) (or (not p30) (not p19) p66) (or p15 (not p61) (not p18)) (or p58 (not p63) p74) (or (not p7) (not p33) p7) (or p63 (not p49) (not p40)) (or (not p40) (not p58) p32) (or p6 (not p73) (not p37)) (or p33 (not p65) (not p49)) (or p60 (not p62) p5) (or (not p78) (not p20) (not p56)) (or (not p1) (not p22) (not p72)) (or p4 (not p68) p46) (or (not p2) p30 p14) (or (not p4) p50 p18) (or (not p73) (not p53) p56) (or p27 (not p77) (not p35)) (or p72 (not p27) p36) (or p62 p35 p69) (or p71 p74 p69) (or p25 (not p12) (not p68)) (or p19 (not p28) p22) (or p24 p40 (not p57)) (or p74 (not p11) (not p37)) (or p65 (not p62) (not p32)) (or (not p63) (not p38) p64) (or (not p12) (not p57) (not p12)) (or p52 (not p66) (not p38)) (or p42 p22 (not p5)) (or (not p0) p29 p22) (or (not p23) p59 (not p43)) (or (not p73) p21 (not p57)) (or (not p52) (not p67) p52) (or p31 (not p27) p65) (or (not p16) (not p36) (not p55)) (or (not p79) (not p9) (not p67)) (or (not p18) p52 p74) (or (not p56) (not p21) p18) (or (not p13) (not p35) (not p41)) (or p8 p62 p39) (or p61 p4 (not p51)) (or p8 (not p38) p12) (or (not p28) p40 p59) (or (not p4) (not p12) p39) (or p57 (not p54) p52) (or p12 p77 p68) (or (not p20) (not p4) (not p60)) (or (not p11) p51 p65) (or (not p79) p5 (not p60)) (or (not p29) p73 p77) (or p77 p21 p71) (or (not p48) p25 (not p45)) (or (not p79) (not p3) p47) (or p0 (not p60) (not p54)) (or (not p74) p25 p9) (or (not p56) (not p36) (not p44)) (or (not p73) (not p35) (not p24)) (or (not p66) p37 (not p29)) (or (not p9) (not p69) p54) (or (not p49) (not p0) (not p19)) (or (not p48) (not p13) p1) (or p25 (not p62) p21) (or (not p61) (not p43) (not p63)) (or p8 (not p35) (not p46)) (or p18 (not p37) p57) (or p14 (not p30) p75) (or p16 p44 (not p25)) (or p9 (not p19) (not p42)) (or p62 (not p65) (not p73)) (or (not p47) p48 p15) (or p16 p40 p52) (or (not p66) p2 p50) (or (not p43) p61 (not p43)) (or (not p41) p58 p69) (or p12 p40 (not p63)) (or (not p11) (not p57) (not p50)) (or p58 (not p53) (not p1)) (or (not p43) p1 (not p52)) (or (not p51) p44 (not p29)) (or (not p69) (not p40) (not p2)) (or (not p1) (not p38) p6) (or (not p30) p48 (not p14)) (or (not p2) p79 p78) (or (not p59) p54 (not p17)) (or (not p61) p57 (not p12)) (or (not p56) p33 (not p55)) (or (not p47) p60 p67) (or p29 (not p75) (not p10)) (or (not p25) (not p68) (not p27)) (or (not p56) p60 (not p9)) (or p47 (not p68) p55) (or p1 (not p67) p11) (or p24 p71 (not p41)) (or (not p36) p4 (not p44)) (or (not p24) (not p22) (not p15)) (or (not p60) (not p21) (not p42)) (or (not p51) (not p40) p35) (or (not p39) p25 (not p11)) (or (not p76) p51 p22) (or p37 p42 p74) (or p40 p35 (not p79)) (or p63 (not p31) (not p42)) (or (not p27) p4 p48) (or (not p65) p50 (not p2)) (or p56 (not p26) p68) (or p11 (not p36) (not p28)) (or (not p75) p33 p64) (or (not p50) (not p73) (not p70)) (or (not p68) p44 p0) (or (not p26) (not p72) p25) (or p14 (not p39) (not p48)) (or p2 p31 (not p22)) (or p61 (not p61) (not p61)) (or p7 p61 p21) (or (not p8) p77 (not p36)) (or (not p70) p29 p12) (or (not p45) p26 p7) (or p56 p40 p19) (or p67 (not p12) (not p35)) (or (not p37) p28 (not p11)) (or (not p78) (not p31) (not p5)) (or (not p62) (not p72) (not p49)) (or p57 (not p66) (not p59)) (or (not p30) p39 (not p74)) (or p14 (not p47) p42) (or p63 (not p42) p54) (or p54 p58 (not p40)) (or (not p49) (not p41) p71) (or p36 (not p7) (not p0)) (or (not p55) p55 (not p47)) (or p79 p3 p8) (or p61 p9 p16) (or (not p58) p7 (not p9)) (or (not p22) p12 (not p63)) (or (not p27) (not p18) (not p38)) (or p16 (not p42) p19) (or (not p48) (not p21) p26) (or (not p27) (not p48) (not p12)) (or p68 (not p14) (not p10)) (or (not p69) (not p24) p47) (or (not p66) p24 (not p78)) (or p22 (not p60) (not p79)) (or p33 p31 (not p65)) (or p79 p21 (not p59)) (or p14 p22 (not p75)) (or (not p20) p44 (not p60)) (or p59 (not p26) p70) (or (not p11) (not p26) p43) (or p77 (not p19) (not p60)) (or p60 (not p75) p72) (or (not p2) p21 (not p52)) (or (not p11) (not p2) p43) (or (not p36) p78 p66) (or (not p63) p4 (not p33)) (or p4 p42 (not p30)) (or (not p38) (not p72) (not p12)) (or p46 p17 (not p48)) (or (not p20) p28 p63) (or (not p2) p34 p53) (or p36 p57 p34) (or (not p17) p77 (not p11)) (or (not p57) p4 (not p49)) (or p22 (not p41) (not p29)) (or p31 (not p44) p23) (or (not p34) (not p71) (not p3)) (or p30 p68 p58) (or (not p44) (not p48) p36) (or (not p12) (not p54) (not p66)) (or (not p47) (not p60) p26) (or p36 p11 (not p3)) (or (not p3) p12 (not p40)) (or (not p48) (not p19) (not p24)) (or p64 (not p20) p70) (or (not p75) (not p59) (not p2)) (or (not p56) (not p34) p29) (or p40 p7 (not p44)) (or (not p17) (not p61) (not p61)) (or (not p66) (not p72) p0) (or (not p8) p19 p48) (or p72 (not p10) p10) (or (not p72) p15 (not p22)) (or p15 (not p71) p65) (or p24 (not p51) (not p50)) (or (not p76) p74 (not p54)) (or (not p70) (not p15) (not p31)) (or p71 p29 (not p21)) (or p43 p41 (not p27)) (or p52 (not p67) (not p43)) (or p4 p10 p55) (or (not p16) (not p54) (not p51)) (or p39 p27 p66) (or p65 p34 p40) (or p69 (not p56) (not p48)) (or (not p25) (not p14) p14) (or p12 (not p48) p47) (or p37 (not p16) (not p76)) (or (not p43) p50 (not p41)) (or (not p36) (not p36) (not p72)) (or p42 p58 p6) (or (not p65) (not p1) (not p41)) (or (not p0) (not p41) p46) (or (not p66) (not p48) p43) (or p69 p71 (not p56)) (or p31 p69 (not p45)) (or p58 p12 p6) (or (not p53) p47 p79) (or (not p47) (not p75) p15) (or (not p23) (not p78) (not p21)) (or (not p2) (not p62) p0) (or (not p76) (not p45) p13) (or p43 p36 p77) (or (not p39) p8 p36) (or (not p26) p10 p17) (or (not p63) (not p73) (not p10)) (or p65 p66 p41) (or p51 p16 (not p57)) (or (not p33) p76 p54) (or p34 (not p62) (not p72)) (or p27 p10 (not p64)) (or (not p67) p67 p70) (or (not p29) p37 p26) (or (not p31) p68 p79) (or (not p35) (not p79) p28) (or (not p67) p64 (not p19)) (or p77 (not p34) (not p59)) (or (not p52) p14 p1) (or (not p78) p5 (not p59)) (or p77 p0 (not p10)) (or (not p65) p49 p6) (or (not p68) (not p22) (not p4)) (or p48 (not p74) p23) (or (not p10) (not p73) p5) (or (not p64) p57 (not p4)) (or p18 (not p44) (not p64)) (or (not p53) p58 p69) (or (not p15) p10 (not p28)) (or p60 (not p45) p8) (or (not p0) (not p54) p17) (or (not p66) p22 (not p35)) (or (not p43) p57 p18) (or p12 p21 p15) (or (not p46) p40 (not p78)) (or p14 (not p25) p27) (or (not p54) p33 p70) (or (not p15) p49 (not p75)) (or p22 (not p59) (not p16)) (or p9 (not p63) p23) (or (not p44) p16 p30) (or (not p49) (not p66) p69) (or (not p45) (not p68) (not p23)) (or p63 (not p43) p56) (or p49 p36 p23) (or (not p4) p63 (not p37)) (or p76 p34 (not p78)) (or p32 p44 (not p78)) (or p71 (not p14) (not p0)) (or p69 p72 (not p73)) (or p53 p35 (not p56)) (or (not p70) (not p36) p46) (or (not p49) p8 (not p46)) (or p48 p2 p6) (or (not p9) p24 p74) (or (not p44) (not p62) (not p51)) (or p67 (not p56) p2) (or (not p10) (not p24) (not p23)) (or (not p62) (not p75) p0) (or p48 (not p18) p26) (or (not p42) p30 (not p30)) (or p18 (not p67) p72) (or p39 p10 (not p4)) (or (not p77) p15 (not p38)) (or p62 (not p50) (not p47)) (or (not p44) p78 (not p6)) (or (not p68) p37 (not p49)) (or (not p15) p77 (not p53)) (or (not p79) p63 (not p75)) (or p67 (not p31) (not p78)) (or p49 p11 p14) (or p28 p20 (not p5)) (or (not p5) p5 (not p18)) (or (not p33) (not p29) (not p55)) (or (not p2) p74 (not p14)) (or p3 p37 (not p78)) (or p9 p51 p26) (or (not p69) (not p3) p38) (or (not p36) p28 (not p61)) (or (not p27) (not p60) (not p5)) (or p8 p9 p60) (or (not p24) (not p38) (not p20)) (or p40 (not p54) p45) (or (not p35) (not p8) p66) (or p79 (not p4) (not p3)) (or (not p69) (not p17) (not p71)) (or (not p1) (not p36) p23) (or p25 p64 p6) (or (not p9) (not p43) (not p29)) (or p43 (not p18) p51) (or p36 (not p56) p37) (or p65 (not p43) (not p5)) (or p61 (not p78) p65) (or p41 (not p40) p67) (or (not p39) (not p57) (not p52)) (or p44 (not p2) p20) (or (not p60) (not p22) (not p24)) (or p46 p68 (not p65)) (or p75 p47 (not p32)) (or p58 (not p28) p38) (or p0 (not p64) (not p0)) (or p50 (not p17) (not p23)) (or p76 (not p51) (not p48)) (or p5 (not p47) (not p65)) (or (not p23) p76 (not p33)) (or (not p62) (not p25) p56) (or p48 p13 (not p9)) (or (not p4) (not p55) (not p32)) (or p54 p59 (not p28)) (or p12 (not p13) p7) (or p67 (not p79) (not p54)) (or p32 (not p45) (not p28)) (or (not p3) p29 p1) (or (not p3) p24 p74) (or (not p25) (not p22) (not p61)) (or (not p31) p14 (not p20)) (or (not p2) (not p1) (not p70)) (or p58 p41 p35) (or (not p54) p8 p54))
)
(check-sat)
(get-model)
